
--- Job IEEE 24 node system.gms Start 11/25/21 16:24:03 34.2.0 r6925a71 WEX-WEI x86 64bit/MS Windows
--- Applying:
    C:\GAMS\34\gmsprmNT.txt
--- GAMS Parameters defined
    Input "Z:\MitarbeiterOrdner\Bernecker\GitHub Desktop Project Foulder\Quant-Reliability-Energy-Systems\Model & Data\IEEE 24 node system.gms"
    PageSize 0
    ScrDir "Z:\MitarbeiterOrdner\Bernecker\GitHub Desktop Project Foulder\Quant-Reliability-Energy-Systems\Model & Data\225b\"
    SysDir C:\GAMS\34\
    LogOption 3
    ErrMsg 1
    ErrorLog 99
    IDE 1
    LstTitleLeftAligned 1
Licensee: Small MUD - 5 User License                     S201118/0001AN-WIN
          BTU Cottbus-Senftenberg, FG Energiewirtschaft              DC5591
          C:\Users\berne\Documents\GAMS\gamslice.txt
GAMS 34.2.0   Copyright (C) 1987-2021 GAMS Development. All rights reserved
--- Starting compilation
--- IEEE 24 node system.gms(114) 3 Mb
--- call gdxxrw Data_Input.xlsx @IEEE.txt

GDXXRW           34.2.0 r6925a71 Released Feb 05, 2021 WEI x86 64bit/MS Window
Input file : Z:\MitarbeiterOrdner\Bernecker\GitHub Desktop Project Foulder\Quant-Reliability-Energy-Systems\Model & Data\Data_Input.xlsx
Output file: Z:\MitarbeiterOrdner\Bernecker\GitHub Desktop Project Foulder\Quant-Reliability-Energy-Systems\Model & Data\Data_Input.gdx
Total time = 3890 Ms
--- IEEE 24 node system.gms(115) 3 Mb
--- GDXin=Z:\MitarbeiterOrdner\Bernecker\GitHub Desktop Project Foulder\Quant-Reliability-Energy-Systems\Model & Data\Data_Input.gdx
--- GDX File ($gdxIn) Z:\MitarbeiterOrdner\Bernecker\GitHub Desktop Project Foulder\Quant-Reliability-Energy-Systems\Model & Data\Data_Input.gdx
--- IEEE 24 node system.gms(391) 3 Mb
--- Starting execution: elapsed 0:00:05.867
--- IEEE 24 node system.gms(350) 4 Mb
--- Generating MIP model TEP_IEEE_24
--- IEEE 24 node system.gms(351) 8 Mb  5 secs
--- LOOPS it = 1
---   19,147 rows  12,025 columns  39,052 non-zeroes
--- IEEE 24 node system.gms(351) 8 Mb  6 secs
--- Executing CPLEX (Solvelink=2): elapsed 0:00:15.055

IBM ILOG CPLEX   34.2.0 r6925a71 Released Feb 05, 2021 WEI x86 64bit/MS Window

--- GAMS/Cplex Link licensed for continuous and discrete problems.
--- Space for names approximately 0.84 Mb
--- Use option 'names no' to turn use of names off
--- GMO memory 5.54 Mb (peak 5.63 Mb)
--- Dictionary memory 0.00 Mb
--- Cplex 20.1.0.0 link memory 0.45 Mb (peak 1.99 Mb)
--- Starting Cplex

Version identifier: 20.1.0.0 | 2020-11-10 | 9bedb6d68
CPXPARAM_Advance                                 0
CPXPARAM_Threads                                 1
CPXPARAM_MIP_Display                             4
CPXPARAM_MIP_Tolerances_AbsMIPGap                0
Tried aggregator 1 time.
LP Presolve eliminated 14418 rows and 4789 columns.
Aggregator did 3 substitutions.
Reduced LP has 4725 rows, 7233 columns, and 16107 nonzeros.
Presolve time = 0.02 sec. (14.29 ticks)
Symmetry aggregator did 7972 additional substitutions.

Iteration log . . .
Iteration:     1   Dual objective     =     -66072861.441000
Perturbation started.
Iteration:   101   Dual objective     =     -66072861.441000
Iteration:   283   Dual objective     =     -66072861.394518
Iteration:   453   Dual objective     =     -65913296.468684
Iteration:   618   Dual objective     =     -65319181.339397
Iteration:   809   Dual objective     =       4775953.844547
Iteration:   967   Dual objective     =       4781638.973278
Iteration:  1110   Dual objective     =       4781702.836200
Iteration:  1257   Dual objective     =       4781702.836468
Iteration:  1384   Dual objective     =       4781702.836698
Iteration:  1495   Dual objective     =       4781702.842955
Iteration:  1618   Dual objective     =       4781702.860813
Iteration:  1723   Dual objective     =       4781702.873063
Iteration:  1821   Dual objective     =       4781702.889701
Iteration:  1939   Dual objective     =       4795574.905585
Removing perturbation.

Dual crossover.
  Dual:  Fixing 9 variables.
        8 DMoves:  Infeasibility  8.86757334e-12  Objective  4.79732676e+06
        0 DMoves:  Infeasibility  4.32009983e-12  Objective  4.79732676e+06
  Dual:  Pushed 0, exchanged 9.
  Primal:  Fixed no variables.

--- LP status (1): optimal.
--- Cplex Time: 0.14sec (det. 58.61 ticks)


Optimal solution found
Objective:      4797326.761731

--- Reading solution for model TEP_IEEE_24
--- IEEE 24 node system.gms(351) 8 Mb  60 secs
--- Executing after solve: elapsed 0:01:12.471
--- IEEE 24 node system.gms(350) 8 Mb
--- Generating MIP model TEP_IEEE_24
--- IEEE 24 node system.gms(351) 10 Mb  8 secs
--- LOOPS it = 2
---   19,147 rows  12,025 columns  39,052 non-zeroes
--- Executing CPLEX (Solvelink=2): elapsed 0:01:23.541

IBM ILOG CPLEX   34.2.0 r6925a71 Released Feb 05, 2021 WEI x86 64bit/MS Window

--- GAMS/Cplex Link licensed for continuous and discrete problems.
--- Space for names approximately 0.84 Mb
--- Use option 'names no' to turn use of names off
--- GMO memory 5.54 Mb (peak 5.63 Mb)
--- Dictionary memory 0.00 Mb
--- Cplex 20.1.0.0 link memory 0.45 Mb (peak 1.99 Mb)
--- Starting Cplex

Version identifier: 20.1.0.0 | 2020-11-10 | 9bedb6d68
CPXPARAM_Advance                                 2
CPXPARAM_Threads                                 1
CPXPARAM_MIP_Display                             4
CPXPARAM_MIP_Tolerances_AbsMIPGap                0
Tried aggregator 1 time.
LP Presolve eliminated 14418 rows and 4789 columns.
Aggregator did 3 substitutions.
Reduced LP has 4725 rows, 7233 columns, and 16107 nonzeros.
Presolve time = 0.01 sec. (14.33 ticks)

Iteration log . . .
Iteration:     1   Dual objective     =       2431144.665000
Perturbation started.
Iteration:   101   Dual objective     =       2431144.665000
Iteration:   456   Dual objective     =       3599416.669097
Iteration:   919   Dual objective     =       3831425.151195
Iteration:  1144   Dual objective     =       3834513.423297
Iteration:  1351   Dual objective     =       3866096.840024
Iteration:  1555   Dual objective     =       4086806.066806
Iteration:  1769   Dual objective     =       4252247.623268
Iteration:  1983   Dual objective     =       4480446.277652
Iteration:  2199   Dual objective     =       4954610.477948
Iteration:  2417   Dual objective     =       5061223.655695
Iteration:  2646   Dual objective     =       5274316.897521
Iteration:  2889   Dual objective     =       5589118.735419
Iteration:  3106   Dual objective     =       5757689.413929
Iteration:  3337   Dual objective     =       6110490.723386
Removing perturbation.

--- LP status (1): optimal.
--- Cplex Time: 0.14sec (det. 248.18 ticks)


Optimal solution found
Objective:      6110540.147701

--- Reading solution for model TEP_IEEE_24
--- IEEE 24 node system.gms(351) 10 Mb  45 secs
--- Executing after solve: elapsed 0:02:03.868
--- IEEE 24 node system.gms(350) 10 Mb
--- Generating MIP model TEP_IEEE_24
--- IEEE 24 node system.gms(351) 10 Mb  8 secs
--- LOOPS it = 3
---   19,147 rows  12,025 columns  39,052 non-zeroes
--- IEEE 24 node system.gms(351) 10 Mb  9 secs
--- Executing CPLEX (Solvelink=2): elapsed 0:02:14.952

IBM ILOG CPLEX   34.2.0 r6925a71 Released Feb 05, 2021 WEI x86 64bit/MS Window

--- GAMS/Cplex Link licensed for continuous and discrete problems.
--- Space for names approximately 0.84 Mb
--- Use option 'names no' to turn use of names off
--- GMO memory 5.54 Mb (peak 5.63 Mb)
--- Dictionary memory 0.00 Mb
--- Cplex 20.1.0.0 link memory 0.45 Mb (peak 1.99 Mb)
--- Starting Cplex

Version identifier: 20.1.0.0 | 2020-11-10 | 9bedb6d68
CPXPARAM_Advance                                 2
CPXPARAM_Threads                                 1
CPXPARAM_MIP_Display                             4
CPXPARAM_MIP_Tolerances_AbsMIPGap                0
Tried aggregator 1 time.
LP Presolve eliminated 14418 rows and 4789 columns.
Aggregator did 3 substitutions.
Reduced LP has 4725 rows, 7233 columns, and 16107 nonzeros.
Presolve time = 0.02 sec. (14.33 ticks)

Iteration log . . .
Iteration:     1   Dual objective     =       1264556.790000
Perturbation started.
Iteration:   202   Dual objective     =       1896835.185000
Iteration:   553   Dual objective     =       3065107.188879
Iteration:   961   Dual objective     =       3831425.152274
Iteration:  1168   Dual objective     =       3841694.528129
Iteration:  1378   Dual objective     =       3861586.549470
Iteration:  1595   Dual objective     =       5280517.494262
Iteration:  1825   Dual objective     =       9768633.406810
Iteration:  2029   Dual objective     =      13228547.818303
Iteration:  2243   Dual objective     =      14236955.111726
Iteration:  2454   Dual objective     =      17166149.976611
Iteration:  2679   Dual objective     =      19750417.137044
Iteration:  2908   Dual objective     =      23556793.390254
Iteration:  3152   Dual objective     =      28899892.807192
Iteration:  3386   Dual objective     =      31668688.128115
Iteration:  3613   Dual objective     =      34161873.278817
Removing perturbation.

--- LP status (1): optimal.
--- Cplex Time: 0.17sec (det. 265.11 ticks)


Optimal solution found
Objective:     36745470.779350

--- Reading solution for model TEP_IEEE_24
--- IEEE 24 node system.gms(351) 10 Mb  70 secs
--- Executing after solve: elapsed 0:03:16.119
--- IEEE 24 node system.gms(350) 10 Mb
--- Generating MIP model TEP_IEEE_24
--- IEEE 24 node system.gms(351) 11 Mb  8 secs
--- LOOPS it = 4
---   19,147 rows  12,025 columns  39,052 non-zeroes
--- IEEE 24 node system.gms(351) 11 Mb  9 secs
--- Executing CPLEX (Solvelink=2): elapsed 0:03:27.766

IBM ILOG CPLEX   34.2.0 r6925a71 Released Feb 05, 2021 WEI x86 64bit/MS Window

--- GAMS/Cplex Link licensed for continuous and discrete problems.
--- Space for names approximately 0.84 Mb
--- Use option 'names no' to turn use of names off
--- GMO memory 5.54 Mb (peak 5.63 Mb)
--- Dictionary memory 0.00 Mb
--- Cplex 20.1.0.0 link memory 0.45 Mb (peak 1.99 Mb)
--- Starting Cplex

Version identifier: 20.1.0.0 | 2020-11-10 | 9bedb6d68
CPXPARAM_Advance                                 2
CPXPARAM_Threads                                 1
CPXPARAM_MIP_Display                             4
CPXPARAM_MIP_Tolerances_AbsMIPGap                0
Tried aggregator 1 time.
LP Presolve eliminated 14418 rows and 4789 columns.
Aggregator did 3 substitutions.
Reduced LP has 4725 rows, 7233 columns, and 16107 nonzeros.
Presolve time = 0.01 sec. (14.33 ticks)

Iteration log . . .
Iteration:     1   Dual objective     =       2070771.825000
Perturbation started.
Iteration:   101   Dual objective     =       2070771.825000
Iteration:   458   Dual objective     =       3239043.829107
Iteration:   920   Dual objective     =       3815693.151248
Iteration:  1140   Dual objective     =       3831520.114320
Iteration:  1349   Dual objective     =       3852813.774492
Iteration:  1563   Dual objective     =      22707107.300663
Iteration:  1778   Dual objective     =      44110808.782313
Iteration:  1990   Dual objective     =      60566570.914458
Iteration:  2217   Dual objective     =      71290388.420587
Iteration:  2439   Dual objective     =      83446224.181796
Iteration:  2661   Dual objective     =      89433505.694059
Iteration:  2899   Dual objective     =     114239217.980293
Iteration:  3140   Dual objective     =     133419439.180075
Iteration:  3370   Dual objective     =     144611905.941473
Iteration:  3639   Dual objective     =     148882631.606537
Removing perturbation.

--- LP status (1): optimal.
--- Cplex Time: 0.16sec (det. 259.52 ticks)


Optimal solution found
Objective:    148882631.376001

--- Reading solution for model TEP_IEEE_24
--- IEEE 24 node system.gms(351) 11 Mb  45 secs
--- Executing after solve: elapsed 0:04:07.775
--- IEEE 24 node system.gms(350) 11 Mb
--- Generating MIP model TEP_IEEE_24
--- IEEE 24 node system.gms(351) 11 Mb  8 secs
--- LOOPS it = 5
---   19,147 rows  12,025 columns  39,052 non-zeroes
--- IEEE 24 node system.gms(351) 11 Mb  9 secs
--- Executing CPLEX (Solvelink=2): elapsed 0:04:18.809

IBM ILOG CPLEX   34.2.0 r6925a71 Released Feb 05, 2021 WEI x86 64bit/MS Window

--- GAMS/Cplex Link licensed for continuous and discrete problems.
--- Space for names approximately 0.84 Mb
--- Use option 'names no' to turn use of names off
--- GMO memory 5.54 Mb (peak 5.63 Mb)
--- Dictionary memory 0.00 Mb
--- Cplex 20.1.0.0 link memory 0.45 Mb (peak 1.99 Mb)
--- Starting Cplex

Version identifier: 20.1.0.0 | 2020-11-10 | 9bedb6d68
CPXPARAM_Advance                                 2
CPXPARAM_Threads                                 1
CPXPARAM_MIP_Display                             4
CPXPARAM_MIP_Tolerances_AbsMIPGap                0
Tried aggregator 1 time.
LP Presolve eliminated 14418 rows and 4789 columns.
Aggregator did 3 substitutions.
Reduced LP has 4725 rows, 7233 columns, and 16107 nonzeros.
Presolve time = 0.02 sec. (14.32 ticks)

Iteration log . . .
Iteration:     1   Dual objective     =       1303699.875000
Perturbation started.
Iteration:   303   Dual objective     =       2568256.665000
Iteration:   653   Dual objective     =       3605854.666004
Iteration:  1009   Dual objective     =       3831425.150882
Iteration:  1226   Dual objective     =       3835005.647970
Iteration:  1442   Dual objective     =       8786650.661085
Iteration:  1638   Dual objective     =      31623473.246830
Iteration:  1850   Dual objective     =      56182883.902371
Iteration:  2061   Dual objective     =      92260646.082347
Iteration:  2265   Dual objective     =     112552072.505704
Iteration:  2483   Dual objective     =     144180202.271169
Iteration:  2703   Dual objective     =     167283551.258976
Iteration:  2933   Dual objective     =     194968274.840465
Iteration:  3163   Dual objective     =     228223945.504376
Iteration:  3386   Dual objective     =     255514107.329038
Iteration:  3619   Dual objective     =     286899654.521921
Removing perturbation.

--- LP status (1): optimal.
--- Cplex Time: 0.23sec (det. 251.83 ticks)


Optimal solution found
Objective:    291728062.992001

--- Reading solution for model TEP_IEEE_24
--- IEEE 24 node system.gms(351) 11 Mb  60 secs
--- Executing after solve: elapsed 0:05:10.416
--- IEEE 24 node system.gms(378) 11 Mb  4 secs
--- GDX File (execute_unload) Z:\MitarbeiterOrdner\Bernecker\GitHub Desktop Project Foulder\Quant-Reliability-Energy-Systems\Model & Data\check.gdx
--- IEEE 24 node system.gms(391) 11 Mb

GDXXRW           34.2.0 r6925a71 Released Feb 05, 2021 WEI x86 64bit/MS Window
Input file : Z:\MitarbeiterOrdner\Bernecker\GitHub Desktop Project Foulder\Quant-Reliability-Energy-Systems\Model & Data\check.gdx
Output file: Z:\MitarbeiterOrdner\Bernecker\GitHub Desktop Project Foulder\Quant-Reliability-Energy-Systems\Model & Data\output.xlsx
Total time = 8828 Ms
--- Profile Summary (32 records processed)
   304.547   0.011GB       350 Loop       
    55.187   0.010GB       351 Solve Read TEP_IEEE_24
    51.141   0.008GB       351 Solve Read TEP_IEEE_24
    46.219   0.011GB       351 Solve Read TEP_IEEE_24
    34.250   0.010GB       351 Solve Read TEP_IEEE_24
    34.063   0.011GB       351 Solve Read TEP_IEEE_24
     9.718   0.010GB       351 Solve Fini TEP_IEEE_24 (39052)
     9.610   0.011GB       391 Execute    
     9.578   0.011GB       351 Solve Fini TEP_IEEE_24 (39052)
     9.250   0.011GB       351 Solve Fini TEP_IEEE_24 (39052)
*** Status: Normal completion
--- IEEE 24 node system.gms(391) 11 Mb  9 secs
--- Job IEEE 24 node system.gms Stop 11/25/21 16:29:28 elapsed 0:05:25.051
